HUN,8,6,840
0,88,2,80,4,23,3,94,5,49,1,45
4,74,1,5,3,13,5,78,0,67,2,76
5,43,1,80,4,67,0,14,3,63,2,99
3,77,5,98,1,40,4,74,0,51,2,46
4,1,0,33,1,15,2,6,5,70,3,83
0,94,3,100,4,35,1,8,5,99,2,79
3,17,5,80,0,20,1,52,4,48,2,38
1,5,4,37,5,37,2,47,3,24,0,73
